p tw 62 1639
0 1
0 2
0 3
0 4
0 5
0 6
0 7
0 8
0 9
0 10
0 11
0 12
0 13
0 14
0 15
0 16
0 17
0 18
0 19
0 20
0 21
0 22
0 24
0 29
0 30
0 39
0 42
0 43
0 44
0 25
0 34
0 35
0 36
0 45
0 51
0 28
0 47
0 54
0 55
0 56
0 57
0 23
0 41
0 48
0 52
0 53
0 38
0 40
0 60
0 37
0 61
0 32
0 49
0 58
0 33
0 46
0 31
0 59
1 2
1 3
1 4
1 5
1 6
1 7
1 8
1 9
1 10
1 11
1 12
1 17
1 18
1 19
1 28
1 44
1 45
1 49
1 50
1 52
1 53
1 16
1 22
1 23
1 27
1 33
1 38
1 57
1 59
1 47
1 55
1 58
1 15
1 37
1 40
1 46
1 51
1 56
1 39
1 41
1 43
1 29
1 32
1 54
1 20
1 25
1 34
1 48
1 14
1 24
1 13
1 61
1 30
1 60
2 3
2 4
2 5
2 6
2 7
2 8
2 9
2 10
2 11
2 12
2 17
2 23
2 24
2 25
2 26
2 27
2 28
2 29
2 30
2 31
2 15
2 21
2 32
2 33
2 38
2 39
2 40
2 41
2 35
2 42
2 47
2 54
2 55
2 56
2 57
2 18
2 22
2 48
2 20
2 34
2 37
2 13
2 51
2 60
2 36
2 53
3 4
3 5
3 6
3 7
3 8
3 9
3 10
3 11
3 12
3 13
3 14
3 15
3 16
3 17
3 18
3 19
3 20
3 21
3 22
3 25
3 32
3 33
3 34
3 35
3 36
3 37
3 28
3 30
3 38
3 39
3 40
3 41
3 23
3 27
3 45
3 46
3 47
3 48
3 52
3 53
3 55
3 57
3 58
3 29
3 43
3 49
3 51
3 44
3 26
3 31
3 24
3 56
3 54
3 42
3 50
3 61
4 5
4 6
4 7
4 8
4 9
4 10
4 11
4 12
4 20
4 21
4 25
4 30
4 34
4 35
4 36
4 43
4 45
4 51
4 17
4 18
4 26
4 37
4 40
4 44
4 58
4 59
4 16
4 22
4 23
4 27
4 33
4 38
4 49
4 50
4 57
4 13
4 39
4 41
4 47
4 48
4 52
4 53
4 14
4 24
4 28
4 31
4 54
4 42
4 61
4 19
4 29
4 32
4 55
4 56
4 15
4 46
4 60
5 6
5 7
5 8
5 9
5 10
5 11
5 12
5 13
5 14
5 15
5 16
5 17
5 18
5 19
5 20
5 21
5 22
5 24
5 29
5 30
5 39
5 42
5 43
5 44
5 26
5 35
5 37
5 40
5 58
5 59
5 31
5 33
5 36
5 47
5 49
5 54
5 23
5 25
5 38
5 41
5 48
5 60
5 46
5 51
5 52
5 53
5 56
5 32
5 55
5 45
5 27
5 50
5 61
6 7
6 8
6 9
6 10
6 11
6 12
6 16
6 20
6 25
6 32
6 33
6 34
6 35
6 36
6 37
6 22
6 28
6 47
6 52
6 53
6 55
6 57
6 58
6 31
6 40
6 49
6 54
6 14
6 18
6 23
6 24
6 44
6 45
6 56
6 15
6 26
6 46
6 27
6 29
6 38
6 13
6 42
6 17
6 30
6 60
6 61
6 21
6 39
6 41
6 50
7 8
7 9
7 10
7 11
7 12
7 17
7 23
7 24
7 25
7 26
7 27
7 28
7 29
7 30
7 31
7 20
7 36
7 39
7 45
7 46
7 47
7 48
7 33
7 38
7 49
7 50
7 15
7 37
7 40
7 41
7 52
7 55
7 56
7 61
7 18
7 22
7 44
7 14
7 19
7 57
7 58
7 13
7 34
7 59
7 21
8 9
8 10
8 11
8 12
8 13
8 14
8 15
8 16
8 17
8 18
8 19
8 20
8 21
8 22
8 23
8 24
8 25
8 26
8 27
8 28
8 29
8 30
8 31
8 33
8 38
8 47
8 49
8 50
8 44
8 45
8 52
8 53
8 37
8 40
8 41
8 46
8 55
8 56
8 61
8 36
8 57
8 32
8 54
8 58
8 59
8 34
8 42
9 10
9 11
9 12
9 17
9 23
9 24
9 25
9 26
9 27
9 28
9 29
9 30
9 31
9 16
9 20
9 32
9 33
9 34
9 35
9 36
9 37
9 15
9 21
9 38
9 39
9 40
9 41
9 47
9 49
9 50
9 13
9 48
9 51
9 52
9 53
9 14
9 18
9 59
9 46
9 55
9 56
9 61
9 22
9 44
9 57
9 43
10 11
10 12
10 16
10 20
10 25
10 32
10 33
10 34
10 35
10 36
10 37
10 15
10 18
10 24
10 29
10 30
10 39
10 42
10 43
10 44
10 28
10 31
10 38
10 47
10 49
10 50
10 17
10 19
10 45
10 52
10 53
10 26
10 40
10 58
10 59
10 22
10 23
10 27
10 57
10 13
10 41
10 48
10 51
10 46
10 56
10 55
10 61
10 14
11 12
11 15
11 18
11 24
11 29
11 30
11 39
11 42
11 43
11 44
11 17
11 19
11 28
11 45
11 49
11 50
11 52
11 53
11 35
11 47
11 54
11 55
11 56
11 57
11 16
11 22
11 58
11 33
11 48
11 41
11 51
11 23
11 36
11 38
11 20
11 25
11 32
11 34
11 37
11 27
11 59
11 13
11 40
11 61
11 31
11 46
12 17
12 23
12 24
12 25
12 26
12 27
12 28
12 29
12 30
12 31
12 15
12 21
12 32
12 33
12 38
12 39
12 40
12 41
12 20
12 47
12 49
12 50
12 34
12 35
12 36
12 43
12 45
12 51
12 18
12 37
12 44
12 58
12 59
12 16
12 22
12 57
12 52
12 53
12 55
12 14
12 60
12 19
12 56
12 13
12 61
12 46
13 14
13 15
13 16
13 17
13 18
13 19
13 20
13 21
13 22
13 23
13 35
13 39
13 41
13 47
13 48
13 51
13 52
13 53
13 25
13 36
13 38
13 40
13 60
13 27
13 28
13 42
13 49
13 61
13 24
13 43
13 34
13 44
13 45
13 57
13 58
13 59
13 29
13 55
13 26
13 30
13 31
13 32
13 37
13 50
13 54
13 46
13 33
14 15
14 16
14 17
14 18
14 19
14 20
14 21
14 22
14 24
14 25
14 28
14 30
14 35
14 37
14 41
14 59
14 23
14 36
14 38
14 40
14 48
14 60
14 29
14 53
14 57
14 61
14 27
14 32
14 39
14 52
14 44
14 45
14 56
14 31
14 46
14 49
14 54
14 58
14 33
14 50
15 16
15 17
15 18
15 19
15 20
15 21
15 22
15 28
15 30
15 32
15 33
15 38
15 39
15 40
15 41
15 24
15 29
15 42
15 43
15 44
15 35
15 47
15 54
15 55
15 56
15 57
15 23
15 37
15 46
15 51
15 52
15 53
15 61
15 45
15 49
15 27
15 60
15 31
15 58
15 59
15 26
15 25
15 34
15 36
15 50
16 17
16 18
16 19
16 20
16 21
16 22
16 25
16 32
16 33
16 34
16 35
16 36
16 37
16 23
16 27
16 38
16 49
16 50
16 57
16 59
16 39
16 41
16 47
16 48
16 51
16 52
16 53
16 24
16 28
16 30
16 55
16 58
16 31
16 40
16 54
16 42
16 61
16 43
16 45
17 18
17 19
17 20
17 21
17 22
17 23
17 24
17 25
17 26
17 27
17 28
17 29
17 30
17 31
17 44
17 45
17 49
17 50
17 52
17 53
17 35
17 37
17 40
17 58
17 59
17 33
17 46
17 51
17 56
17 41
17 47
17 48
17 43
17 32
17 60
17 61
18 19
18 20
18 21
18 22
18 24
18 29
18 30
18 39
18 42
18 43
18 44
18 28
18 45
18 49
18 50
18 52
18 53
18 26
18 35
18 37
18 40
18 58
18 59
18 25
18 41
18 33
18 47
18 48
18 55
18 38
18 57
18 60
18 61
18 23
18 36
18 32
18 56
18 34
19 20
19 21
19 22
19 28
19 44
19 45
19 49
19 50
19 52
19 53
19 30
19 33
19 37
19 41
19 46
19 47
19 48
19 51
19 58
19 29
19 32
19 54
19 55
19 24
19 56
19 57
19 23
19 34
19 59
19 61
19 25
19 26
19 31
20 21
20 22
20 25
20 32
20 33
20 34
20 35
20 36
20 37
20 23
20 27
20 30
20 39
20 45
20 46
20 47
20 48
20 28
20 31
20 38
20 49
20 50
20 43
20 51
20 26
20 40
20 44
20 58
20 59
20 41
20 60
20 29
20 53
20 57
20 61
20 54
20 56
20 24
20 52
20 55
21 22
21 28
21 30
21 32
21 33
21 38
21 39
21 40
21 41
21 25
21 34
21 35
21 36
21 43
21 45
21 51
21 23
21 27
21 37
21 52
21 57
21 60
21 29
21 47
21 55
21 24
21 50
21 26
21 46
21 58
21 44
21 56
22 23
22 27
22 33
22 38
22 49
22 50
22 57
22 59
22 28
22 47
22 52
22 53
22 55
22 58
22 25
22 35
22 40
22 42
22 61
22 29
22 39
22 48
22 36
22 44
22 51
22 60
22 24
22 30
22 37
23 24
23 25
23 26
23 27
23 28
23 29
23 30
23 31
23 36
23 39
23 45
23 46
23 47
23 48
23 33
23 38
23 49
23 50
23 57
23 59
23 35
23 41
23 51
23 52
23 53
23 40
23 60
23 37
23 56
23 32
23 44
23 54
23 58
23 34
23 61
24 25
24 26
24 27
24 28
24 29
24 30
24 31
24 39
24 42
24 43
24 44
24 35
24 37
24 41
24 59
24 32
24 36
24 45
24 56
24 57
24 40
24 52
24 58
24 33
24 50
24 46
24 55
24 38
24 61
25 26
25 27
25 28
25 29
25 30
25 31
25 32
25 33
25 34
25 35
25 36
25 37
25 38
25 47
25 49
25 50
25 43
25 45
25 51
25 41
25 59
25 40
25 48
25 60
25 42
25 61
25 54
25 56
25 55
25 57
25 52
25 39
25 44
26 27
26 28
26 29
26 30
26 31
26 35
26 37
26 40
26 44
26 58
26 59
26 33
26 46
26 47
26 32
26 49
26 50
26 54
26 55
26 57
27 28
27 29
27 30
27 31
27 36
27 39
27 45
27 46
27 47
27 48
27 33
27 38
27 49
27 50
27 57
27 59
27 35
27 40
27 42
27 61
27 32
27 37
27 52
27 60
27 41
27 55
27 56
27 53
27 54
28 29
28 30
28 31
28 32
28 33
28 38
28 39
28 40
28 41
28 47
28 49
28 50
28 44
28 45
28 52
28 53
28 35
28 42
28 54
28 55
28 56
28 57
28 37
28 59
28 58
28 61
28 34
28 36
28 46
29 30
29 31
29 39
29 42
29 43
29 44
29 33
29 47
29 48
29 55
29 35
29 37
29 38
29 53
29 57
29 60
29 61
29 32
29 49
29 54
29 58
29 56
29 40
29 51
29 52
29 46
29 50
29 36
29 41
29 45
29 59
30 31
30 32
30 33
30 38
30 39
30 40
30 41
30 42
30 43
30 44
30 36
30 45
30 46
30 47
30 48
30 34
30 35
30 51
30 37
30 59
30 58
30 49
30 55
30 56
30 50
30 54
30 60
30 61
30 52
30 57
31 33
31 38
31 47
31 49
31 50
31 36
31 37
31 40
31 54
31 32
31 45
31 46
31 53
31 58
31 59
31 44
31 55
31 56
31 57
31 61
32 33
32 34
32 35
32 36
32 37
32 38
32 39
32 40
32 41
32 47
32 49
32 54
32 55
32 58
32 52
32 57
32 60
32 44
32 45
32 56
32 46
32 53
32 59
32 48
32 50
32 61
33 34
33 35
33 36
33 37
33 38
33 39
33 40
33 41
33 47
33 49
33 50
33 57
33 59
33 54
33 46
33 51
33 52
33 53
33 56
33 55
33 61
33 48
33 58
33 44
33 45
34 35
34 36
34 37
34 43
34 45
34 51
34 48
34 54
34 56
34 44
34 57
34 58
34 59
34 61
34 38
34 40
34 42
35 36
35 37
35 43
35 45
35 51
35 39
35 42
35 47
35 54
35 55
35 56
35 57
35 40
35 44
35 58
35 59
35 41
35 48
35 52
35 53
35 38
35 49
35 61
35 60
36 37
36 39
36 45
36 46
36 47
36 48
36 43
36 51
36 40
36 49
36 54
36 38
36 41
36 60
36 44
36 53
36 57
36 56
36 42
36 50
36 55
36 61
37 40
37 44
37 58
37 59
37 41
37 47
37 49
37 54
37 46
37 51
37 52
37 53
37 56
37 38
37 55
37 61
37 57
37 60
37 48
37 39
37 50
38 39
38 40
38 41
38 47
38 49
38 50
38 57
38 59
38 48
38 60
38 42
38 61
38 46
38 52
38 55
38 56
38 53
38 44
38 45
38 51
38 58
39 40
39 41
39 42
39 43
39 44
39 45
39 46
39 47
39 48
39 54
39 55
39 56
39 57
39 51
39 52
39 53
39 49
39 60
39 50
40 41
40 44
40 58
40 59
40 47
40 49
40 54
40 48
40 60
40 46
40 51
40 52
40 53
40 56
40 42
40 61
40 55
40 57
40 43
41 47
41 48
41 51
41 52
41 53
41 59
41 60
41 46
41 55
41 56
41 61
41 43
41 45
41 49
41 58
41 44
41 50
42 43
42 44
42 47
42 54
42 55
42 56
42 57
42 49
42 61
43 44
43 45
43 51
43 49
43 53
43 52
44 45
44 49
44 50
44 52
44 53
44 58
44 59
44 47
44 57
44 56
44 46
44 61
45 46
45 47
45 48
45 51
45 49
45 50
45 52
45 53
45 56
45 57
45 54
45 58
45 59
45 55
45 61
46 47
46 48
46 51
46 52
46 53
46 56
46 55
46 61
46 58
46 49
46 54
46 59
46 60
46 57
47 48
47 49
47 50
47 54
47 55
47 56
47 57
47 51
47 52
47 53
47 58
47 60
47 61
48 51
48 52
48 53
48 60
48 55
48 58
48 54
48 56
49 50
49 52
49 53
49 57
49 59
49 54
49 61
49 51
49 55
49 58
49 56
49 60
50 52
50 53
50 57
50 59
50 54
50 55
50 61
50 56
51 52
51 53
51 56
51 58
51 55
51 60
52 53
52 55
52 57
52 58
52 56
52 61
52 60
53 55
53 57
53 58
53 56
53 60
53 61
53 54
53 59
54 55
54 56
54 57
54 58
54 59
55 56
55 57
55 58
55 61
55 59
55 60
56 57
56 61
56 59
56 58
57 59
57 58
57 60
57 61
58 59
58 61
59 61
60 61
